problems/csplib-prob065/opd-models/noch/O2/minion/model_1-medium_10_100_30-solution000001.solution
language Essence 1.3

letting lambda be 24
letting opd be
        {{63, 64, 66, 68, 69, 70, 72, 74, 75, 76, 77, 78, 79, 80, 82, 83, 84, 85, 86, 87, 88, 91, 92, 93, 94, 96, 97,
          98, 99, 100},
         {63, 64, 67, 68, 69, 70, 71, 72, 73, 74, 77, 78, 79, 80, 83, 84, 85, 86, 89, 90, 91, 92, 93, 94, 95, 96, 97,
          98, 99, 100},
         {63, 64, 67, 68, 69, 70, 71, 72, 75, 76, 77, 78, 81, 82, 83, 84, 87, 88, 89, 90, 91, 92, 93, 94, 95, 96, 97,
          98, 99, 100},
         {63, 64, 67, 68, 69, 70, 73, 74, 75, 76, 79, 80, 81, 82, 85, 86, 87, 88, 89, 90, 91, 92, 93, 94, 95, 96, 97,
          98, 99, 100},
         {65, 66, 67, 68, 69, 70, 71, 72, 73, 74, 75, 76, 77, 78, 79, 80, 81, 82, 83, 84, 85, 86, 87, 88, 89, 90, 91,
          92, 93, 94},
         {65, 66, 67, 68, 69, 70, 71, 72, 73, 74, 75, 76, 77, 78, 79, 80, 81, 82, 83, 84, 85, 86, 87, 88, 95, 96, 97,
          98, 99, 100},
         {65, 66, 67, 68, 69, 70, 71, 72, 73, 74, 75, 76, 77, 78, 79, 80, 81, 82, 89, 90, 91, 92, 93, 94, 95, 96, 97,
          98, 99, 100},
         {65, 66, 67, 68, 69, 70, 71, 72, 73, 74, 75, 76, 83, 84, 85, 86, 87, 88, 89, 90, 91, 92, 93, 94, 95, 96, 97,
          98, 99, 100},
         {65, 66, 67, 68, 69, 70, 77, 78, 79, 80, 81, 82, 83, 84, 85, 86, 87, 88, 89, 90, 91, 92, 93, 94, 95, 96, 97,
          98, 99, 100},
         {71, 72, 73, 74, 75, 76, 77, 78, 79, 80, 81, 82, 83, 84, 85, 86, 87, 88, 89, 90, 91, 92, 93, 94, 95, 96, 97,
          98, 99, 100}}
$ Visualisation for opd
$  63  64  66  68  69  70  72  74  75  76  77  78  79  80  82  83  84  85  86  87  88  91  92  93  94  96  97  98  99 100
$  63  64  67  68  69  70  71  72  73  74  77  78  79  80  83  84  85  86  89  90  91  92  93  94  95  96  97  98  99 100
$  63  64  67  68  69  70  71  72  75  76  77  78  81  82  83  84  87  88  89  90  91  92  93  94  95  96  97  98  99 100
$  63  64  67  68  69  70  73  74  75  76  79  80  81  82  85  86  87  88  89  90  91  92  93  94  95  96  97  98  99 100
$  65  66  67  68  69  70  71  72  73  74  75  76  77  78  79  80  81  82  83  84  85  86  87  88  89  90  91  92  93  94
$  65  66  67  68  69  70  71  72  73  74  75  76  77  78  79  80  81  82  83  84  85  86  87  88  95  96  97  98  99 100
$  65  66  67  68  69  70  71  72  73  74  75  76  77  78  79  80  81  82  89  90  91  92  93  94  95  96  97  98  99 100
$  65  66  67  68  69  70  71  72  73  74  75  76  83  84  85  86  87  88  89  90  91  92  93  94  95  96  97  98  99 100
$  65  66  67  68  69  70  77  78  79  80  81  82  83  84  85  86  87  88  89  90  91  92  93  94  95  96  97  98  99 100
$  71  72  73  74  75  76  77  78  79  80  81  82  83  84  85  86  87  88  89  90  91  92  93  94  95  96  97  98  99 100

